NAME : mtspf.pid7927.gtsp.240992049.tour
COMMENT : Length = 240992049
COMMENT : Found by LKH [Keld Helsgaun] Tue Feb  4 20:34:02 2025
TYPE : TOUR
DIMENSION : 135
TOUR_SECTION
1
49
50
51
48
102
103
100
101
107
104
105
106
93
94
95
92
34
35
32
33
78
79
76
77
13
12
122
123
120
121
42
43
40
41
5
8
46
47
44
45
11
3
14
25
26
27
24
96
97
98
99
9
110
111
108
109
37
38
39
36
66
67
64
65
54
55
52
53
63
60
61
62
19
16
17
18
2
6
23
20
21
22
135
132
133
134
72
73
74
75
83
80
81
82
119
116
117
118
30
31
28
29
85
86
87
84
7
70
71
68
69
114
115
112
113
129
130
131
128
124
125
126
127
10
59
56
57
58
4
90
91
88
89
15
-1
EOF
